************************************************************************
file with basedata            : mm52_.bas
initial value random generator: 983424876
************************************************************************
projects                      :  1
jobs (incl. supersource/sink ):  12
horizon                       :  77
RESOURCES
  - renewable                 :  2   R
  - nonrenewable              :  2   N
  - doubly constrained        :  0   D
************************************************************************
PROJECT INFORMATION:
pronr.  #jobs rel.date duedate tardcost  MPM-Time
    1     10      0       16        2       16
************************************************************************
PRECEDENCE RELATIONS:
jobnr.    #modes  #successors   successors
   1        1          3           2   3   4
   2        3          2           5   7
   3        3          2           5   6
   4        3          2           9  10
   5        3          1          11
   6        3          3           7   8  10
   7        3          1          11
   8        3          1           9
   9        3          1          12
  10        3          1          12
  11        3          1          12
  12        1          0        
************************************************************************
REQUESTS/DURATIONS:
jobnr. mode duration  R 1  R 2  N 1  N 2
------------------------------------------------------------------------
  1      1     0       0    0    0    0
  2      1     1       5    4    7    0
         2     3       4    4    5    0
         3     7       4    4    1    0
  3      1     3       8    7    0    8
         2     5       7    5    2    0
         3     6       6    5    0    7
  4      1     9       6    2    8    0
         2     9       8    2    0    7
         3    10       2    2    0    6
  5      1     2       2    6   10    0
         2     5       1    4    0    6
         3     7       1    4    9    0
  6      1     4       8    7    0   10
         2     5       7    7    0    6
         3     8       6    6    7    0
  7      1     4       8    8    0    4
         2     5       6    7    6    0
         3    10       5    4    6    0
  8      1     6       8    8    0    6
         2     7       6    8    1    0
         3     8       4    8    0    5
  9      1     2       8    7    0    5
         2     2       9    7    0    3
         3     4       6    5    6    0
 10      1     4       8    4    0    5
         2     5       5    3    2    0
         3    10       1    1    2    0
 11      1     5       3    4    0    4
         2     6       3    2    0    4
         3     7       2    2    0    4
 12      1     0       0    0    0    0
************************************************************************
RESOURCEAVAILABILITIES:
  R 1  R 2  N 1  N 2
   19   16   49   55
************************************************************************
MAXIMAL LAGS:
from  to  type  delay
    1   12   ES      0
    1    2   ES      0
    2   12   ES      0
    1    3   ES      0
    3   12   ES      0
    1    4   ES      0
    4   12   ES      0
    1    5   ES      0
    5   12   ES      0
    1    6   ES      0
    6   12   ES      0
    1    7   ES      0
    7   12   ES      0
    1    8   ES      0
    8   12   ES      0
    1    9   ES      0
    9   12   ES      0
    1   10   ES      0
   10   12   ES      0
    1   11   ES      0
   11   12   ES      0
    1   12   ES      0
    2    5   SS     -2
    2    5   SE    -12
    2    5   ES      7
    2    5   EE    -11
    2    7   SS     10
    2    7   SE     12
    2    7   ES     -1
    2    7   EE      6
    3    5   SS     -9
    3    5   SE     12
    3    5   ES    -10
    3    5   EE      7
    3    6   SS    -10
    3    6   SE      4
    3    6   ES      1
    3    6   EE     11
    4    9   SS     -7
    4    9   SE     11
    4    9   ES     -6
    4    9   EE     -5
    4   10   SS      7
    4   10   SE     12
    4   10   ES     12
    4   10   EE     -7
    5   11   SS     -7
    5   11   SE    -12
    5   11   ES      8
    5   11   EE      3
    6    7   SS     11
    6    7   SE     -9
    6    7   ES     -2
    6    7   EE    -10
    6    8   SS     -9
    6    8   SE      0
    6    8   ES      6
    6    8   EE     10
    6   10   SS      9
    6   10   SE      0
    6   10   ES      1
    6   10   EE      0
    7   11   SS     10
    7   11   SE      3
    7   11   ES     -8
    7   11   EE     -2
    8    9   SS     -7
    8    9   SE     -9
    8    9   ES     -3
    8    9   EE     -1
************************************************************************
